60
1 0 7
2 0 4
2 1 4
3 0 6
3 1 3
3 2 7
4 0 6
4 1 7
4 2 4
4 3 3
5 0 2
5 1 5
5 2 5
5 3 5
5 4 5
6 0 2
6 1 5
6 2 6
6 3 7
6 4 2
6 5 1
7 0 1
7 1 2
7 2 2
7 3 1
7 4 3
7 5 3
7 6 4
8 0 2
8 1 5
8 2 2
8 3 2
8 4 6
8 5 7
8 6 1
8 7 1
9 0 2
9 1 5
9 2 7
9 3 3
9 4 5
9 5 3
9 6 5
9 7 3
9 8 6
10 0 1
10 1 6
10 2 6
10 3 1
10 4 4
10 5 2
10 6 1
10 7 2
10 8 4
10 9 5
11 0 6
11 1 4
11 2 2
11 3 6
11 4 1
11 5 6
11 6 1
11 7 7
11 8 3
11 9 4
11 10 7
12 0 3
12 1 2
12 2 4
12 3 3
12 4 5
12 5 1
12 6 5
12 7 1
12 8 4
12 9 3
12 10 3
12 11 6
13 0 3
13 1 3
13 2 2
13 3 6
13 4 2
13 5 2
13 6 3
13 7 6
13 8 7
13 9 7
13 10 2
13 11 6
13 12 2
14 0 7
14 1 7
14 2 2
14 3 6
14 4 7
14 5 2
14 6 6
14 7 7
14 8 4
14 9 7
14 10 3
14 11 6
14 12 5
14 13 3
15 0 1
15 1 1
15 2 7
15 3 4
15 4 5
15 5 7
15 6 5
15 7 3
15 8 3
15 9 3
15 10 4
15 11 2
15 12 1
15 13 5
15 14 3
16 0 2
16 1 7
16 2 6
16 3 6
16 4 7
16 5 3
16 6 1
16 7 2
16 8 4
16 9 7
16 10 3
16 11 4
16 12 6
16 13 6
16 14 3
16 15 2
17 0 1
17 1 5
17 2 3
17 3 1
17 4 3
17 5 1
17 6 7
17 7 2
17 8 5
17 9 6
17 10 1
17 11 2
17 12 2
17 13 5
17 14 6
17 15 3
17 16 2
18 0 6
18 1 2
18 2 5
18 3 2
18 4 2
18 5 5
18 6 4
18 7 3
18 8 7
18 9 2
18 10 4
18 11 4
18 12 4
18 13 4
18 14 3
18 15 2
18 16 3
18 17 6
19 0 2
19 1 2
19 2 2
19 3 1
19 4 7
19 5 4
19 6 7
19 7 7
19 8 4
19 9 4
19 10 2
19 11 7
19 12 2
19 13 6
19 14 6
19 15 1
19 16 3
19 17 5
19 18 1
20 0 7
20 1 1
20 2 4
20 3 4
20 4 5
20 5 3
20 6 5
20 7 5
20 8 4
20 9 1
20 10 5
20 11 4
20 12 7
20 13 6
20 14 4
20 15 6
20 16 7
20 17 4
20 18 6
20 19 1
21 0 5
21 1 1
21 2 7
21 3 7
21 4 3
21 5 5
21 6 6
21 7 4
21 8 3
21 9 2
21 10 4
21 11 7
21 12 4
21 13 5
21 14 4
21 15 3
21 16 5
21 17 5
21 18 6
21 19 3
21 20 7
22 0 5
22 1 6
22 2 4
22 3 2
22 4 6
22 5 5
22 6 6
22 7 6
22 8 5
22 9 2
22 10 2
22 11 6
22 12 6
22 13 6
22 14 3
22 15 2
22 16 5
22 17 6
22 18 4
22 19 5
22 20 1
22 21 3
23 0 4
23 1 5
23 2 4
23 3 4
23 4 1
23 5 6
23 6 4
23 7 6
23 8 1
23 9 7
23 10 4
23 11 2
23 12 3
23 13 7
23 14 7
23 15 3
23 16 3
23 17 7
23 18 5
23 19 4
23 20 1
23 21 1
23 22 5
24 0 4
24 1 5
24 2 1
24 3 7
24 4 5
24 5 2
24 6 3
24 7 6
24 8 3
24 9 6
24 10 4
24 11 5
24 12 4
24 13 7
24 14 1
24 15 3
24 16 6
24 17 3
24 18 5
24 19 2
24 20 3
24 21 6
24 22 4
24 23 5
25 0 2
25 1 2
25 2 1
25 3 7
25 4 3
25 5 6
25 6 6
25 7 1
25 8 1
25 9 6
25 10 6
25 11 3
25 12 5
25 13 3
25 14 7
25 15 6
25 16 5
25 17 2
25 18 3
25 19 2
25 20 5
25 21 7
25 22 5
25 23 1
25 24 7
26 0 4
26 1 2
26 2 4
26 3 3
26 4 5
26 5 5
26 6 3
26 7 1
26 8 6
26 9 6
26 10 7
26 11 3
26 12 1
26 13 5
26 14 1
26 15 6
26 16 1
26 17 2
26 18 1
26 19 7
26 20 6
26 21 3
26 22 2
26 23 3
26 24 5
26 25 6
27 0 1
27 1 1
27 2 1
27 3 5
27 4 6
27 5 3
27 6 4
27 7 1
27 8 4
27 9 1
27 10 2
27 11 6
27 12 1
27 13 2
27 14 6
27 15 7
27 16 3
27 17 3
27 18 5
27 19 5
27 20 2
27 21 5
27 22 2
27 23 6
27 24 2
27 25 1
27 26 3
28 0 7
28 1 6
28 2 7
28 3 3
28 4 7
28 5 5
28 6 4
28 7 2
28 8 5
28 9 4
28 10 2
28 11 5
28 12 3
28 13 7
28 14 7
28 15 1
28 16 1
28 17 2
28 18 4
28 19 6
28 20 5
28 21 3
28 22 4
28 23 6
28 24 3
28 25 2
28 26 2
28 27 1
29 0 3
29 1 2
29 2 4
29 3 5
29 4 7
29 5 6
29 6 4
29 7 2
29 8 2
29 9 1
29 10 6
29 11 3
29 12 6
29 13 4
29 14 3
29 15 3
29 16 7
29 17 3
29 18 4
29 19 7
29 20 7
29 21 7
29 22 4
29 23 2
29 24 4
29 25 4
29 26 1
29 27 6
29 28 6
30 0 1
30 1 4
30 2 5
30 3 2
30 4 6
30 5 5
30 6 4
30 7 4
30 8 4
30 9 7
30 10 4
30 11 3
30 12 3
30 13 7
30 14 2
30 15 2
30 16 2
30 17 2
30 18 4
30 19 6
30 20 6
30 21 1
30 22 7
30 23 2
30 24 7
30 25 3
30 26 1
30 27 3
30 28 4
30 29 5
31 0 5
31 1 2
31 2 1
31 3 5
31 4 4
31 5 4
31 6 4
31 7 5
31 8 1
31 9 3
31 10 6
31 11 3
31 12 5
31 13 1
31 14 2
31 15 7
31 16 2
31 17 6
31 18 4
31 19 3
31 20 1
31 21 7
31 22 2
31 23 1
31 24 2
31 25 6
31 26 3
31 27 6
31 28 3
31 29 7
31 30 1
32 0 3
32 1 1
32 2 7
32 3 3
32 4 3
32 5 4
32 6 5
32 7 4
32 8 5
32 9 1
32 10 4
32 11 3
32 12 7
32 13 2
32 14 2
32 15 3
32 16 1
32 17 4
32 18 3
32 19 2
32 20 3
32 21 5
32 22 3
32 23 3
32 24 2
32 25 7
32 26 6
32 27 5
32 28 7
32 29 1
32 30 1
32 31 4
33 0 6
33 1 6
33 2 1
33 3 3
33 4 2
33 5 1
33 6 5
33 7 5
33 8 7
33 9 2
33 10 5
33 11 4
33 12 2
33 13 2
33 14 5
33 15 4
33 16 5
33 17 5
33 18 4
33 19 6
33 20 1
33 21 5
33 22 3
33 23 1
33 24 3
33 25 7
33 26 4
33 27 5
33 28 1
33 29 2
33 30 6
33 31 2
33 32 7
34 0 7
34 1 5
34 2 1
34 3 7
34 4 6
34 5 3
34 6 4
34 7 6
34 8 3
34 9 6
34 10 7
34 11 3
34 12 7
34 13 1
34 14 4
34 15 7
34 16 7
34 17 4
34 18 4
34 19 3
34 20 4
34 21 5
34 22 6
34 23 7
34 24 2
34 25 1
34 26 3
34 27 2
34 28 7
34 29 3
34 30 4
34 31 5
34 32 5
34 33 5
35 0 3
35 1 1
35 2 5
35 3 2
35 4 5
35 5 5
35 6 4
35 7 7
35 8 5
35 9 3
35 10 4
35 11 6
35 12 2
35 13 6
35 14 6
35 15 6
35 16 6
35 17 1
35 18 5
35 19 1
35 20 5
35 21 5
35 22 2
35 23 5
35 24 6
35 25 6
35 26 4
35 27 2
35 28 2
35 29 5
35 30 4
35 31 2
35 32 6
35 33 4
35 34 4
36 0 3
36 1 6
36 2 4
36 3 4
36 4 4
36 5 2
36 6 3
36 7 2
36 8 2
36 9 6
36 10 2
36 11 1
36 12 7
36 13 4
36 14 5
36 15 2
36 16 4
36 17 2
36 18 7
36 19 3
36 20 6
36 21 1
36 22 7
36 23 4
36 24 3
36 25 7
36 26 5
36 27 5
36 28 7
36 29 5
36 30 2
36 31 4
36 32 6
36 33 7
36 34 4
36 35 5
37 0 2
37 1 7
37 2 6
37 3 7
37 4 7
37 5 4
37 6 5
37 7 5
37 8 3
37 9 1
37 10 4
37 11 2
37 12 3
37 13 7
37 14 1
37 15 1
37 16 1
37 17 1
37 18 3
37 19 5
37 20 2
37 21 2
37 22 2
37 23 2
37 24 7
37 25 5
37 26 4
37 27 5
37 28 5
37 29 1
37 30 1
37 31 6
37 32 6
37 33 5
37 34 4
37 35 5
37 36 1
38 0 4
38 1 7
38 2 4
38 3 7
38 4 6
38 5 4
38 6 3
38 7 4
38 8 1
38 9 5
38 10 6
38 11 4
38 12 5
38 13 5
38 14 5
38 15 5
38 16 4
38 17 1
38 18 2
38 19 3
38 20 5
38 21 5
38 22 5
38 23 1
38 24 6
38 25 4
38 26 5
38 27 6
38 28 7
38 29 6
38 30 7
38 31 3
38 32 4
38 33 7
38 34 6
38 35 6
38 36 3
38 37 1
39 0 4
39 1 7
39 2 6
39 3 1
39 4 5
39 5 5
39 6 1
39 7 3
39 8 7
39 9 1
39 10 7
39 11 4
39 12 4
39 13 3
39 14 3
39 15 1
39 16 1
39 17 6
39 18 2
39 19 2
39 20 7
39 21 4
39 22 5
39 23 7
39 24 6
39 25 6
39 26 5
39 27 2
39 28 2
39 29 6
39 30 3
39 31 2
39 32 3
39 33 3
39 34 6
39 35 7
39 36 6
39 37 4
39 38 5
40 0 4
40 1 7
40 2 7
40 3 1
40 4 4
40 5 1
40 6 5
40 7 7
40 8 6
40 9 1
40 10 3
40 11 4
40 12 3
40 13 4
40 14 7
40 15 7
40 16 4
40 17 7
40 18 2
40 19 1
40 20 6
40 21 6
40 22 2
40 23 2
40 24 1
40 25 6
40 26 2
40 27 3
40 28 2
40 29 5
40 30 3
40 31 6
40 32 6
40 33 5
40 34 1
40 35 2
40 36 4
40 37 7
40 38 2
40 39 5
41 0 7
41 1 4
41 2 7
41 3 5
41 4 2
41 5 7
41 6 7
41 7 1
41 8 1
41 9 4
41 10 2
41 11 4
41 12 2
41 13 5
41 14 1
41 15 2
41 16 2
41 17 1
41 18 4
41 19 5
41 20 4
41 21 5
41 22 3
41 23 5
41 24 3
41 25 5
41 26 7
41 27 3
41 28 5
41 29 1
41 30 3
41 31 6
41 32 3
41 33 4
41 34 5
41 35 2
41 36 3
41 37 5
41 38 1
41 39 6
41 40 1
42 0 5
42 1 6
42 2 1
42 3 6
42 4 1
42 5 1
42 6 4
42 7 3
42 8 4
42 9 6
42 10 5
42 11 7
42 12 3
42 13 3
42 14 5
42 15 5
42 16 2
42 17 5
42 18 7
42 19 7
42 20 2
42 21 1
42 22 4
42 23 2
42 24 5
42 25 2
42 26 4
42 27 2
42 28 5
42 29 2
42 30 3
42 31 6
42 32 2
42 33 3
42 34 1
42 35 6
42 36 4
42 37 6
42 38 6
42 39 1
42 40 4
42 41 7
43 0 2
43 1 2
43 2 6
43 3 5
43 4 2
43 5 6
43 6 7
43 7 4
43 8 6
43 9 4
43 10 7
43 11 6
43 12 7
43 13 3
43 14 6
43 15 5
43 16 3
43 17 5
43 18 6
43 19 3
43 20 5
43 21 3
43 22 5
43 23 6
43 24 6
43 25 7
43 26 7
43 27 4
43 28 2
43 29 3
43 30 3
43 31 2
43 32 7
43 33 5
43 34 3
43 35 7
43 36 3
43 37 3
43 38 5
43 39 2
43 40 3
43 41 7
43 42 1
44 0 5
44 1 5
44 2 2
44 3 1
44 4 5
44 5 1
44 6 7
44 7 6
44 8 6
44 9 6
44 10 4
44 11 7
44 12 6
44 13 4
44 14 7
44 15 6
44 16 4
44 17 5
44 18 4
44 19 4
44 20 1
44 21 1
44 22 5
44 23 4
44 24 4
44 25 6
44 26 7
44 27 4
44 28 5
44 29 5
44 30 2
44 31 5
44 32 5
44 33 4
44 34 3
44 35 3
44 36 2
44 37 7
44 38 5
44 39 3
44 40 3
44 41 1
44 42 4
44 43 4
45 0 1
45 1 5
45 2 5
45 3 5
45 4 7
45 5 1
45 6 7
45 7 1
45 8 7
45 9 3
45 10 3
45 11 6
45 12 4
45 13 2
45 14 4
45 15 1
45 16 5
45 17 5
45 18 1
45 19 3
45 20 2
45 21 2
45 22 5
45 23 2
45 24 3
45 25 1
45 26 5
45 27 3
45 28 7
45 29 1
45 30 1
45 31 2
45 32 3
45 33 4
45 34 6
45 35 1
45 36 5
45 37 6
45 38 7
45 39 5
45 40 4
45 41 7
45 42 4
45 43 7
45 44 3
46 0 2
46 1 7
46 2 3
46 3 4
46 4 5
46 5 6
46 6 2
46 7 7
46 8 3
46 9 1
46 10 2
46 11 2
46 12 2
46 13 6
46 14 6
46 15 3
46 16 3
46 17 2
46 18 7
46 19 2
46 20 5
46 21 7
46 22 7
46 23 6
46 24 3
46 25 1
46 26 5
46 27 3
46 28 4
46 29 3
46 30 3
46 31 5
46 32 4
46 33 4
46 34 7
46 35 5
46 36 4
46 37 5
46 38 2
46 39 3
46 40 6
46 41 5
46 42 4
46 43 7
46 44 3
46 45 3
47 0 5
47 1 6
47 2 4
47 3 5
47 4 7
47 5 3
47 6 1
47 7 6
47 8 7
47 9 2
47 10 2
47 11 3
47 12 2
47 13 6
47 14 4
47 15 7
47 16 3
47 17 6
47 18 7
47 19 4
47 20 6
47 21 1
47 22 2
47 23 3
47 24 6
47 25 7
47 26 6
47 27 4
47 28 3
47 29 7
47 30 4
47 31 1
47 32 2
47 33 1
47 34 1
47 35 6
47 36 5
47 37 6
47 38 4
47 39 1
47 40 6
47 41 1
47 42 2
47 43 5
47 44 2
47 45 1
47 46 2
48 0 4
48 1 7
48 2 1
48 3 3
48 4 4
48 5 1
48 6 1
48 7 4
48 8 4
48 9 4
48 10 2
48 11 3
48 12 4
48 13 2
48 14 1
48 15 4
48 16 6
48 17 2
48 18 1
48 19 3
48 20 2
48 21 7
48 22 1
48 23 6
48 24 5
48 25 5
48 26 7
48 27 5
48 28 5
48 29 5
48 30 6
48 31 5
48 32 5
48 33 7
48 34 6
48 35 6
48 36 1
48 37 1
48 38 6
48 39 6
48 40 1
48 41 5
48 42 7
48 43 3
48 44 1
48 45 5
48 46 1
48 47 6
49 0 7
49 1 7
49 2 7
49 3 1
49 4 6
49 5 2
49 6 2
49 7 6
49 8 5
49 9 6
49 10 3
49 11 5
49 12 4
49 13 1
49 14 4
49 15 5
49 16 7
49 17 3
49 18 3
49 19 7
49 20 5
49 21 3
49 22 6
49 23 7
49 24 5
49 25 4
49 26 2
49 27 6
49 28 7
49 29 6
49 30 6
49 31 6
49 32 1
49 33 5
49 34 1
49 35 1
49 36 7
49 37 2
49 38 5
49 39 7
49 40 4
49 41 5
49 42 2
49 43 3
49 44 4
49 45 6
49 46 6
49 47 7
49 48 4
50 0 7
50 1 4
50 2 4
50 3 5
50 4 2
50 5 2
50 6 2
50 7 6
50 8 1
50 9 1
50 10 3
50 11 5
50 12 7
50 13 1
50 14 2
50 15 5
50 16 6
50 17 6
50 18 2
50 19 2
50 20 5
50 21 6
50 22 2
50 23 2
50 24 4
50 25 2
50 26 2
50 27 1
50 28 5
50 29 1
50 30 5
50 31 1
50 32 5
50 33 6
50 34 7
50 35 2
50 36 1
50 37 2
50 38 4
50 39 7
50 40 3
50 41 3
50 42 7
50 43 6
50 44 1
50 45 3
50 46 4
50 47 2
50 48 1
50 49 3
51 0 1
51 1 4
51 2 4
51 3 3
51 4 5
51 5 6
51 6 6
51 7 2
51 8 4
51 9 2
51 10 4
51 11 5
51 12 5
51 13 6
51 14 4
51 15 5
51 16 1
51 17 1
51 18 2
51 19 6
51 20 7
51 21 1
51 22 4
51 23 1
51 24 5
51 25 2
51 26 6
51 27 2
51 28 3
51 29 3
51 30 6
51 31 7
51 32 3
51 33 5
51 34 4
51 35 3
51 36 3
51 37 2
51 38 3
51 39 4
51 40 4
51 41 2
51 42 4
51 43 2
51 44 2
51 45 1
51 46 1
51 47 4
51 48 4
51 49 6
51 50 1
52 0 3
52 1 6
52 2 5
52 3 4
52 4 7
52 5 6
52 6 6
52 7 3
52 8 2
52 9 5
52 10 7
52 11 3
52 12 4
52 13 2
52 14 7
52 15 6
52 16 1
52 17 7
52 18 6
52 19 1
52 20 4
52 21 1
52 22 7
52 23 1
52 24 5
52 25 5
52 26 4
52 27 5
52 28 1
52 29 7
52 30 1
52 31 4
52 32 1
52 33 3
52 34 5
52 35 4
52 36 2
52 37 4
52 38 1
52 39 2
52 40 3
52 41 5
52 42 1
52 43 7
52 44 4
52 45 6
52 46 1
52 47 6
52 48 2
52 49 4
52 50 4
52 51 3
53 0 1
53 1 4
53 2 5
53 3 3
53 4 4
53 5 6
53 6 1
53 7 6
53 8 2
53 9 6
53 10 1
53 11 1
53 12 5
53 13 1
53 14 5
53 15 3
53 16 6
53 17 1
53 18 3
53 19 3
53 20 2
53 21 7
53 22 2
53 23 2
53 24 1
53 25 2
53 26 7
53 27 1
53 28 3
53 29 1
53 30 3
53 31 2
53 32 5
53 33 5
53 34 4
53 35 3
53 36 4
53 37 6
53 38 4
53 39 5
53 40 7
53 41 5
53 42 5
53 43 4
53 44 1
53 45 4
53 46 1
53 47 6
53 48 2
53 49 5
53 50 1
53 51 2
53 52 3
54 0 5
54 1 3
54 2 5
54 3 7
54 4 4
54 5 7
54 6 4
54 7 1
54 8 2
54 9 1
54 10 6
54 11 1
54 12 1
54 13 2
54 14 2
54 15 2
54 16 2
54 17 6
54 18 2
54 19 6
54 20 7
54 21 1
54 22 2
54 23 4
54 24 3
54 25 1
54 26 5
54 27 2
54 28 6
54 29 6
54 30 1
54 31 1
54 32 7
54 33 7
54 34 1
54 35 6
54 36 7
54 37 4
54 38 4
54 39 1
54 40 1
54 41 6
54 42 1
54 43 5
54 44 7
54 45 4
54 46 7
54 47 5
54 48 4
54 49 5
54 50 3
54 51 5
54 52 5
54 53 6
55 0 3
55 1 4
55 2 7
55 3 3
55 4 7
55 5 7
55 6 2
55 7 3
55 8 6
55 9 4
55 10 3
55 11 6
55 12 4
55 13 2
55 14 1
55 15 2
55 16 2
55 17 5
55 18 7
55 19 4
55 20 4
55 21 6
55 22 2
55 23 5
55 24 1
55 25 6
55 26 2
55 27 5
55 28 3
55 29 5
55 30 1
55 31 1
55 32 1
55 33 5
55 34 3
55 35 7
55 36 6
55 37 5
55 38 6
55 39 1
55 40 3
55 41 1
55 42 3
55 43 6
55 44 6
55 45 4
55 46 4
55 47 2
55 48 7
55 49 5
55 50 7
55 51 3
55 52 5
55 53 2
55 54 5
56 0 2
56 1 2
56 2 7
56 3 6
56 4 5
56 5 7
56 6 1
56 7 7
56 8 2
56 9 2
56 10 3
56 11 7
56 12 6
56 13 6
56 14 7
56 15 2
56 16 3
56 17 6
56 18 1
56 19 6
56 20 1
56 21 4
56 22 2
56 23 1
56 24 2
56 25 2
56 26 2
56 27 7
56 28 2
56 29 2
56 30 6
56 31 1
56 32 4
56 33 4
56 34 5
56 35 6
56 36 6
56 37 4
56 38 2
56 39 4
56 40 3
56 41 2
56 42 3
56 43 2
56 44 4
56 45 5
56 46 2
56 47 1
56 48 3
56 49 7
56 50 6
56 51 4
56 52 6
56 53 3
56 54 7
56 55 2
57 0 1
57 1 6
57 2 3
57 3 3
57 4 6
57 5 5
57 6 1
57 7 2
57 8 7
57 9 1
57 10 3
57 11 1
57 12 1
57 13 4
57 14 2
57 15 7
57 16 2
57 17 6
57 18 7
57 19 7
57 20 4
57 21 4
57 22 1
57 23 6
57 24 5
57 25 6
57 26 7
57 27 7
57 28 1
57 29 3
57 30 7
57 31 7
57 32 5
57 33 2
57 34 6
57 35 3
57 36 3
57 37 4
57 38 5
57 39 7
57 40 2
57 41 3
57 42 2
57 43 4
57 44 3
57 45 5
57 46 3
57 47 4
57 48 4
57 49 6
57 50 1
57 51 1
57 52 6
57 53 1
57 54 4
57 55 4
57 56 2
58 0 1
58 1 5
58 2 1
58 3 5
58 4 2
58 5 6
58 6 2
58 7 3
58 8 5
58 9 5
58 10 4
58 11 7
58 12 7
58 13 1
58 14 7
58 15 4
58 16 3
58 17 6
58 18 3
58 19 3
58 20 7
58 21 4
58 22 4
58 23 7
58 24 5
58 25 3
58 26 2
58 27 1
58 28 5
58 29 6
58 30 6
58 31 3
58 32 7
58 33 6
58 34 2
58 35 5
58 36 5
58 37 2
58 38 3
58 39 1
58 40 4
58 41 1
58 42 4
58 43 6
58 44 7
58 45 3
58 46 5
58 47 5
58 48 5
58 49 6
58 50 6
58 51 5
58 52 1
58 53 2
58 54 2
58 55 3
58 56 1
58 57 1
59 0 5
59 1 1
59 2 1
59 3 3
59 4 7
59 5 4
59 6 5
59 7 5
59 8 3
59 9 1
59 10 6
59 11 1
59 12 1
59 13 1
59 14 3
59 15 4
59 16 6
59 17 7
59 18 6
59 19 2
59 20 4
59 21 2
59 22 7
59 23 5
59 24 4
59 25 1
59 26 1
59 27 5
59 28 4
59 29 2
59 30 7
59 31 7
59 32 4
59 33 3
59 34 7
59 35 5
59 36 3
59 37 7
59 38 3
59 39 1
59 40 2
59 41 1
59 42 5
59 43 3
59 44 4
59 45 7
59 46 7
59 47 6
59 48 5
59 49 3
59 50 6
59 51 6
59 52 1
59 53 4
59 54 7
59 55 6
59 56 2
59 57 3
59 58 5
